\ Model Scheduling_copy
\ LP format - for model browsing. Use MPS format to capture full model detail.
\ Signature: 0x8a91e39a4d737620
Maximize
 
Subject To
 InitialCond: C5945200 = 1
 EC18: C3030540 = 0
 EC20: C5945200 - C5950060 + C5954920 = 0
 f_UpperB: - C3030540 + C5950060 <= 0
Bounds
Binaries
 C3030540 C5945200 C5950060 C5954920
End
